proyfinal/src/viki/013/experimentInOfficeAgust.take6.output/74f5039e-44b2-4b31-bbb0-232740281864.als.dat
{'cnf.clauses': '118081',
 'cnf.totvars': '69608',
 'conflict literals': '156',
 'conflicts': '51',
 'decisions': '30244',
 'memused.mb': '15.55',
 'outcome': 'UNSAT',
 'propagations': '88450',
 'restarts': '1',
 'solver.msecs': 38,
 'task.msecs': 89}
