proyfinal/src/viki/013/experimentInOfficeAgust.take6.output/74f5039e-44b2-4b31-bbb0-232740281864.als.out
Reading from standard input... Use '--help' for help.
============================[ Problem Statistics ]=============================
|                                                                             |
|  Number of variables:         69608                                         |
|  Number of clauses:          118081                                         |
|  Parse time:                   0.02 s                                       |
|                                                                             |
============================[ Search Statistics ]==============================
| Conflicts |          ORIGINAL         |          LEARNT          | Progress |
|           |    Vars  Clauses Literals |    Limit  Clauses Lit/Cl |          |
===============================================================================
===============================================================================
restarts              : 1
conflicts             : 51             (1331 /sec)
decisions             : 30244          (0.00 % random) (789248 /sec)
propagations          : 88450          (2308194 /sec)
conflict literals     : 156            (11.86 % deleted)
Memory used           : 15.55 MB
CPU time              : 0.03832 s

UNSATISFIABLE
